39
 1 780 20
 2 160 4
 3 82 2
 4 252 6
 5 860 20
 6 660 15
 7 630 14
 8 414 9
 9 940 20
 10 384 8
 11 490 10
 12 350 7
 13 306 6
 14 468 9
 15 53 1
 16 1080 20
 17 495 9
 18 168 3
 19 1083 19
 20 870 15
 21 59 1
 22 540 9
 23 671 11
 24 372 6
 25 252 4
 26 192 3
 27 325 5
 28 198 3
 29 737 11
 30 204 3
 31 1380 20
 32 1330 19
 33 1207 17
 34 576 8
 35 73 1
 36 296 4
 37 975 13
 38 988 13
 39 1540 20
780